9
0 67 13 60 20 3 73 63 1 
86 0 55 91 15 9 74 8 8 
6 89 0 43 25 89 86 43 94 
3 7 66 0 71 85 19 45 90 
95 93 69 18 0 29 97 8 16 
98 83 4 20 66 0 8 26 42 
27 18 57 17 24 19 0 87 60 
22 69 72 11 88 52 55 0 25 
93 41 98 59 39 46 49 91 0 
